data;

set J := 1 2 3 4 5 6 7 8 9 10 11 12 13 14 15 16 17 18 19 20 21 22 23 24 25 26 27 28 29 30 31 32 33 34 35 36 37 38 39 40 41 42 43 44 45 46 47 48 49 50 51 52 53 54 55 56 57 58 59 60 61 62 63 64 65 66 67 68 69 70 71 72 73 74 75 76 77 78 79 80 81 82 83 84 85 86 87 88 89 90 91 92 93 94 95 96 97 98 99 100 101 102 103 104 105 106 107 108 109 110 111 112 113 114 115 116 117 118 119 120 121 122 123 124 125 126 127 128 129 130 131 132 133 134 135 136 137 138 139 140 141 142 143 144 145 146 147 148 149 150 151 152 153 154 155 156 157 158 159 160 161 162 163 164 165 166 167 168 169 170 171 172 173 174 175 176 177 178 179 180 181 182 183 184 185 186 187 188 189 190 191 192 193 194 195 196 197 198 199 200 201 202 203 204 205 206 207 208 209 210 211 212 213 214 215 216 217 218 219 220 221 222 223 224 225 226 227 228 229 230 231 232 233 234 235 236 237 238 239 240 241 242 243 244 245 246 247 248 249 250 251 252 253 254 255 256 257 258 259 260 261 262 263 264 265 266 267 268 269 270 271 272 273 274 275 276 277 278 279 280 281 282 283 284 285 286 287 288 289 290 291 292 293 294 295 296 297 298 299 300;
set I := 1 2 3 4 5 6 7 8 9 10 11 12 13 14 15 16 17 18 19 20 21 22 23 24 25 26 27 28 29 30 31 32 33 34 35 36 37 38 39 40 41 42 43 44 45 46 47 48 49 50 51 52 53 54 55 56 57 58 59 60 61 62 63 64 65 66 67 68 69 70 71 72 73 74 75 76 77 78 79 80 81 82 83 84 85 86 87 88 89 90 91 92 93 94 95 96 97 98 99 100 101 102 103 104 105 106 107 108 109 110 111 112 113 114 115 116 117 118 119 120 121 122 123 124 125 126 127 128 129 130 131 132 133 134 135 136 137 138 139 140 141 142 143 144 145 146 147 148 149 150 151 152 153 154 155 156 157 158 159 160 161 162 163 164 165 166 167 168 169 170 171 172 173 174 175 176 177 178 179 180 181 182 183 184 185 186 187 188 189 190 191 192 193 194 195 196 197 198 199 200 201 202 203 204 205 206 207 208 209 210 211 212 213 214 215 216 217 218 219 220 221 222 223 224 225 226 227 228 229 230 231 232 233 234 235 236 237 238 239 240;

param p := 
    1 107
    2 151
    3 75
    4 102
    5 86
    6 160
    7 91
    8 3
    9 26
    10 29
    11 120
    12 62
    13 181
    14 9
    15 120
    16 84
    17 16
    18 159
    19 136
    20 26
    21 156
    22 78
    23 40
    24 71
    25 73
    26 171
    27 109
    28 28
    29 133
    30 177
    31 102
    32 135
    33 155
    34 87
    35 102
    36 163
    37 46
    38 175
    39 150
    40 32
    41 160
    42 178
    43 85
    44 48
    45 109
    46 45
    47 32
    48 148
    49 141
    50 82
    51 150
    52 101
    53 116
    54 125
    55 11
    56 29
    57 9
    58 30
    59 128
    60 101
    61 12
    62 57
    63 58
    64 67
    65 33
    66 102
    67 41
    68 41
    69 174
    70 100
    71 141
    72 124
    73 57
    74 145
    75 147
    76 166
    77 183
    78 15
    79 163
    80 24
    81 100
    82 116
    83 18
    84 135
    85 177
    86 130
    87 65
    88 3
    89 113
    90 16
    91 92
    92 18
    93 167
    94 100
    95 178
    96 23
    97 63
    98 77
    99 165
    100 39
    101 126
    102 18
    103 99
    104 165
    105 30
    106 69
    107 65
    108 20
    109 29
    110 145
    111 77
    112 42
    113 186
    114 22
    115 143
    116 129
    117 49
    118 12
    119 19
    120 125
    121 142
    122 179
    123 69
    124 135
    125 45
    126 173
    127 12
    128 120
    129 89
    130 33
    131 35
    132 146
    133 131
    134 127
    135 80
    136 47
    137 93
    138 71
    139 100
    140 135
    141 156
    142 119
    143 133
    144 52
    145 138
    146 69
    147 168
    148 41
    149 88
    150 88
    151 89
    152 14
    153 157
    154 114
    155 168
    156 48
    157 155
    158 10
    159 107
    160 124
    161 57
    162 21
    163 184
    164 23
    165 22
    166 50
    167 170
    168 186
    169 156
    170 104
    171 82
    172 7
    173 95
    174 148
    175 35
    176 98
    177 159
    178 125
    179 72
    180 146
    181 119
    182 151
    183 110
    184 55
    185 7
    186 134
    187 146
    188 43
    189 178
    190 57
    191 143
    192 170
    193 57
    194 80
    195 71
    196 56
    197 90
    198 10
    199 178
    200 143
    201 169
    202 42
    203 44
    204 180
    205 181
    206 80
    207 86
    208 111
    209 38
    210 63
    211 157
    212 63
    213 163
    214 181
    215 125
    216 24
    217 123
    218 171
    219 161
    220 22
    221 2
    222 57
    223 83
    224 22
    225 135
    226 170
    227 18
    228 75
    229 121
    230 79
    231 52
    232 96
    233 85
    234 80
    235 31
    236 68
    237 143
    238 81
    239 140
    240 170
    241 91
    242 182
    243 39
    244 41
    245 177
    246 49
    247 111
    248 92
    249 72
    250 139
    251 38
    252 81
    253 30
    254 104
    255 165
    256 78
    257 163
    258 79
    259 38
    260 116
    261 96
    262 180
    263 42
    264 146
    265 182
    266 156
    267 172
    268 16
    269 109
    270 67
    271 45
    272 180
    273 57
    274 41
    275 26
    276 41
    277 5
    278 184
    279 76
    280 57
    281 88
    282 141
    283 11
    284 184
    285 182
    286 73
    287 129
    288 147
    289 49
    290 41
    291 151
    292 164
    293 148
    294 82
    295 126
    296 31
    297 173
    298 35
    299 50
    300 81;

param r := 
    1 136
    2 116
    3 20
    4 87
    5 195
    6 147
    7 131
    8 11
    9 162
    10 78
    11 89
    12 155
    13 172
    14 41
    15 2
    16 73
    17 53
    18 163
    19 21
    20 179
    21 32
    22 109
    23 113
    24 86
    25 175
    26 49
    27 154
    28 39
    29 194
    30 103
    31 64
    32 143
    33 119
    34 133
    35 196
    36 193
    37 85
    38 69
    39 140
    40 61
    41 128
    42 157
    43 190
    44 118
    45 10
    46 65
    47 61
    48 22
    49 14
    50 105
    51 143
    52 24
    53 184
    54 179
    55 121
    56 19
    57 146
    58 54
    59 73
    60 139
    61 96
    62 69
    63 175
    64 173
    65 24
    66 146
    67 78
    68 74
    69 191
    70 78
    71 8
    72 41
    73 21
    74 151
    75 12
    76 128
    77 102
    78 77
    79 134
    80 77
    81 159
    82 24
    83 47
    84 125
    85 125
    86 71
    87 123
    88 190
    89 20
    90 157
    91 87
    92 41
    93 4
    94 45
    95 199
    96 9
    97 181
    98 128
    99 139
    100 15
    101 174
    102 198
    103 72
    104 136
    105 91
    106 1
    107 137
    108 7
    109 44
    110 91
    111 131
    112 88
    113 121
    114 106
    115 54
    116 85
    117 99
    118 15
    119 52
    120 13
    121 132
    122 27
    123 132
    124 29
    125 161
    126 6
    127 99
    128 101
    129 54
    130 13
    131 117
    132 192
    133 193
    134 36
    135 148
    136 21
    137 45
    138 156
    139 66
    140 6
    141 13
    142 177
    143 52
    144 30
    145 141
    146 183
    147 45
    148 44
    149 148
    150 91
    151 185
    152 20
    153 42
    154 164
    155 163
    156 81
    157 71
    158 30
    159 13
    160 126
    161 88
    162 101
    163 118
    164 4
    165 143
    166 87
    167 175
    168 168
    169 10
    170 26
    171 114
    172 117
    173 84
    174 65
    175 72
    176 158
    177 116
    178 116
    179 148
    180 132
    181 134
    182 188
    183 85
    184 65
    185 24
    186 67
    187 122
    188 94
    189 124
    190 87
    191 135
    192 85
    193 167
    194 187
    195 136
    196 120
    197 166
    198 174
    199 38
    200 179
    201 164
    202 105
    203 74
    204 126
    205 82
    206 155
    207 112
    208 198
    209 120
    210 196
    211 120
    212 141
    213 98
    214 32
    215 136
    216 168
    217 82
    218 12
    219 182
    220 95
    221 23
    222 79
    223 144
    224 80
    225 81
    226 170
    227 177
    228 67
    229 63
    230 150
    231 80
    232 73
    233 18
    234 25
    235 7
    236 72
    237 101
    238 19
    239 30
    240 83
    241 132
    242 75
    243 53
    244 101
    245 50
    246 119
    247 115
    248 170
    249 14
    250 120
    251 37
    252 64
    253 3
    254 170
    255 58
    256 70
    257 88
    258 135
    259 66
    260 36
    261 199
    262 54
    263 169
    264 33
    265 19
    266 100
    267 124
    268 30
    269 116
    270 13
    271 144
    272 93
    273 40
    274 134
    275 81
    276 191
    277 162
    278 80
    279 83
    280 96
    281 86
    282 91
    283 104
    284 25
    285 167
    286 72
    287 182
    288 5
    289 88
    290 113
    291 149
    292 135
    293 53
    294 108
    295 124
    296 43
    297 82
    298 187
    299 124
    300 189;

param T := 188;
param R := 199;
param M := 1000000;

end;